Version identifier: 12.10.0.0 | 2019-11-26 | 843d4de
CPXPARAM_Read_DataCheck                          1
CPXPARAM_RandomSeed                              201903125
CPXPARAM_TimeLimit                               7200
Parallel mode: deterministic, using up to 8 threads for concurrent optimization:
 * Starting dual Simplex on 1 thread...
 * Starting Barrier on 6 threads...
 * Starting primal Simplex on 1 thread...
Tried aggregator 1 time.
No LP presolve or aggregator reductions.
Presolve time = 0.00 sec. (5.86 ticks)

Iteration log . . .
Iteration:     1   Dual objective     =          1151.000000
Perturbation started.
Iteration:   101   Dual objective     =          1151.000000
Iteration:   238   Dual objective     =          1151.030750
Iteration:   390   Dual objective     =          1151.069302
Iteration:   618   Dual objective     =          1151.069307
Iteration:   848   Dual objective     =          1151.069310
Iteration:  1077   Dual objective     =          1151.069313
Iteration:  1303   Dual objective     =          1151.069315
Iteration:  1535   Dual objective     =          1151.069316
Iteration:  1759   Dual objective     =          1151.069318
Iteration:  1985   Dual objective     =          1151.069319
Iteration:  2219   Dual objective     =          1151.069319
Removing perturbation.

Dual simplex solved model.

